% Logging successfully configured
%%%mzn-stat: initTime=0.034647837
%%%mzn-stat: objective=665
%%%mzn-stat: nodes=16281
%%%mzn-stat: restarts=0
%%%mzn-stat: peakDepth=316
%%%mzn-stat: solveTime=1.362305556
%%%mzn-stat: variables=662
%%%mzn-stat: propagators=455
%%%mzn-stat: failures=7119
%%%mzn-stat: propagations=307591
%%%mzn-stat: nogoods=7119
%%%mzn-stat: numAtomicConstraintsPropagated=0
%%%mzn-stat: allDifferentNumber1TotalHallSetSize=10221
%%%mzn-stat: allDifferentNumber1NumberOfConflicts=1257
%%%mzn-stat: allDifferentNumber1MaxHallSetSize=49
%%%mzn-stat: allDifferentNumber1PropagationsTotal=41887
%%%mzn-stat: allDifferentNumber1PropagationsThatFoundConflict=1257
%%%mzn-stat: circuitNumber2PropagationsThatFoundConflict=4650
%%%mzn-stat: circuitNumber2TotalFixedEdgesAtConflict=213036
%%%mzn-stat: circuitNumber2NumberOfConflicts=4650
%%%mzn-stat: circuitNumber2PropagationsThatPruned=7339
%%%mzn-stat: circuitNumber2PropagationsTotal=29269
%%%mzn-stat: AverageConflictSize=18.22446972889451
%%%mzn-stat: NumUnitNogoodsLearned=0
%%%mzn-stat: AverageLearnedNogoodLength=18.519595448798988
%%%mzn-stat: AverageBacktrackAmount=0
%%%mzn-stat: AverageLbd=14.304396684927658
%%%mzn-stat: 2AutonomousSearchNumBackupCalled=281
%%%mzn-stat: 2AutonomousSearchNumPredicatesRemoved=0
%%%mzn-stat: 2AutonomousSearchNumCalls=282
%%%mzn-stat: 2AutonomousSearchNumPredicatesAdded=1494
%%%mzn-stat: 2AutonomousSearchAverageSizeOfHeap=5.297872340425532
%%%mzn-stat: 2AutonomousSearchNumAssignedPredicatesEncountered=1494
%%%mzn-stat-end
maxleg = 665;
succ = array1d(1..50,[4, 10, 6, 5, 24, 17, 19, 15, 16, 8, 3, 11, 27, 23, 14, 20, 50, 30, 13, 21, 25, 36, 44, 39, 26, 41, 1, 33, 31, 22, 37, 7, 29, 12, 43, 38, 2, 49, 28, 9, 46, 48, 32, 47, 40, 42, 45, 18, 34, 35]);
% time elapsed: 3.62 s
----------
%%%mzn-stat: initTime=0.034647837
%%%mzn-stat: objective=332
%%%mzn-stat: nodes=260473
%%%mzn-stat: restarts=0
%%%mzn-stat: peakDepth=316
%%%mzn-stat: solveTime=38.101381893
%%%mzn-stat: variables=662
%%%mzn-stat: propagators=455
%%%mzn-stat: failures=143530
%%%mzn-stat: propagations=5789262
%%%mzn-stat: nogoods=143530
%%%mzn-stat: numAtomicConstraintsPropagated=0
%%%mzn-stat: allDifferentNumber1TotalHallSetSize=230142
%%%mzn-stat: allDifferentNumber1NumberOfConflicts=17448
%%%mzn-stat: allDifferentNumber1MaxHallSetSize=49
%%%mzn-stat: allDifferentNumber1PropagationsTotal=714967
%%%mzn-stat: allDifferentNumber1PropagationsThatFoundConflict=17448
%%%mzn-stat: circuitNumber2PropagationsThatFoundConflict=91800
%%%mzn-stat: circuitNumber2TotalFixedEdgesAtConflict=4156071
%%%mzn-stat: circuitNumber2NumberOfConflicts=91800
%%%mzn-stat: circuitNumber2PropagationsThatPruned=133253
%%%mzn-stat: circuitNumber2PropagationsTotal=499121
%%%mzn-stat: AverageConflictSize=20.44736988782833
%%%mzn-stat: NumUnitNogoodsLearned=0
%%%mzn-stat: AverageLearnedNogoodLength=21.13830558071483
%%%mzn-stat: AverageBacktrackAmount=0
%%%mzn-stat: AverageLbd=14.14719570821431
%%%mzn-stat: 2AutonomousSearchNumBackupCalled=550
%%%mzn-stat: 2AutonomousSearchNumPredicatesRemoved=0
%%%mzn-stat: 2AutonomousSearchNumCalls=552
%%%mzn-stat: 2AutonomousSearchNumPredicatesAdded=3505
%%%mzn-stat: 2AutonomousSearchAverageSizeOfHeap=6.717391304347826
%%%mzn-stat: 2AutonomousSearchNumAssignedPredicatesEncountered=3708
%%%mzn-stat-end
maxleg = 332;
succ = array1d(1..50,[4, 10, 6, 5, 24, 17, 19, 15, 16, 8, 12, 34, 27, 23, 14, 20, 18, 36, 13, 21, 25, 3, 44, 39, 26, 41, 1, 33, 31, 22, 37, 7, 29, 49, 43, 38, 2, 11, 28, 9, 46, 48, 32, 47, 40, 42, 45, 30, 50, 35]);
% time elapsed: 40.36 s
----------
%%%mzn-stat: initTime=0.034647837
%%%mzn-stat: objective=313
%%%mzn-stat: nodes=260825
%%%mzn-stat: restarts=0
%%%mzn-stat: peakDepth=316
%%%mzn-stat: solveTime=38.106364327
%%%mzn-stat: variables=662
%%%mzn-stat: propagators=455
%%%mzn-stat: failures=143538
%%%mzn-stat: propagations=5790530
%%%mzn-stat: nogoods=143538
%%%mzn-stat: numAtomicConstraintsPropagated=0
%%%mzn-stat: allDifferentNumber1TotalHallSetSize=230177
%%%mzn-stat: allDifferentNumber1NumberOfConflicts=17456
%%%mzn-stat: allDifferentNumber1MaxHallSetSize=49
%%%mzn-stat: allDifferentNumber1PropagationsTotal=715081
%%%mzn-stat: allDifferentNumber1PropagationsThatFoundConflict=17456
%%%mzn-stat: circuitNumber2PropagationsThatFoundConflict=91800
%%%mzn-stat: circuitNumber2TotalFixedEdgesAtConflict=4156071
%%%mzn-stat: circuitNumber2NumberOfConflicts=91800
%%%mzn-stat: circuitNumber2PropagationsThatPruned=133262
%%%mzn-stat: circuitNumber2PropagationsTotal=499195
%%%mzn-stat: AverageConflictSize=20.446592539954576
%%%mzn-stat: NumUnitNogoodsLearned=0
%%%mzn-stat: AverageLearnedNogoodLength=21.137475790383036
%%%mzn-stat: AverageBacktrackAmount=0
%%%mzn-stat: AverageLbd=14.146658027839317
%%%mzn-stat: 2AutonomousSearchNumBackupCalled=830
%%%mzn-stat: 2AutonomousSearchNumPredicatesRemoved=0
%%%mzn-stat: 2AutonomousSearchNumCalls=833
%%%mzn-stat: 2AutonomousSearchNumPredicatesAdded=3545
%%%mzn-stat: 2AutonomousSearchAverageSizeOfHeap=7.117647058823529
%%%mzn-stat: 2AutonomousSearchNumAssignedPredicatesEncountered=5929
%%%mzn-stat-end
maxleg = 313;
succ = array1d(1..50,[4, 10, 6, 5, 24, 17, 19, 15, 16, 8, 12, 34, 27, 23, 14, 20, 18, 36, 32, 21, 25, 3, 44, 39, 26, 41, 1, 33, 31, 22, 37, 13, 29, 49, 43, 38, 2, 11, 28, 9, 46, 48, 7, 47, 40, 42, 45, 30, 50, 35]);
% time elapsed: 40.37 s
----------
%%%mzn-stat: initTime=0.034647837
%%%mzn-stat: objective=286
%%%mzn-stat: nodes=261202
%%%mzn-stat: restarts=0
%%%mzn-stat: peakDepth=316
%%%mzn-stat: solveTime=38.11470077
%%%mzn-stat: variables=662
%%%mzn-stat: propagators=455
%%%mzn-stat: failures=143553
%%%mzn-stat: propagations=5792305
%%%mzn-stat: nogoods=143553
%%%mzn-stat: numAtomicConstraintsPropagated=0
%%%mzn-stat: allDifferentNumber1TotalHallSetSize=230237
%%%mzn-stat: allDifferentNumber1NumberOfConflicts=17469
%%%mzn-stat: allDifferentNumber1MaxHallSetSize=49
%%%mzn-stat: allDifferentNumber1PropagationsTotal=715281
%%%mzn-stat: allDifferentNumber1PropagationsThatFoundConflict=17469
%%%mzn-stat: circuitNumber2PropagationsThatFoundConflict=91802
%%%mzn-stat: circuitNumber2TotalFixedEdgesAtConflict=4156167
%%%mzn-stat: circuitNumber2NumberOfConflicts=91802
%%%mzn-stat: circuitNumber2PropagationsThatPruned=133280
%%%mzn-stat: circuitNumber2PropagationsTotal=499321
%%%mzn-stat: AverageConflictSize=20.44572387898546
%%%mzn-stat: NumUnitNogoodsLearned=0
%%%mzn-stat: AverageLearnedNogoodLength=21.136618531134843
%%%mzn-stat: AverageBacktrackAmount=0
%%%mzn-stat: AverageLbd=14.146148112543798
%%%mzn-stat: 2AutonomousSearchNumBackupCalled=1093
%%%mzn-stat: 2AutonomousSearchNumPredicatesRemoved=0
%%%mzn-stat: 2AutonomousSearchNumCalls=1097
%%%mzn-stat: 2AutonomousSearchNumPredicatesAdded=3845
%%%mzn-stat: 2AutonomousSearchAverageSizeOfHeap=7.439380127620784
%%%mzn-stat: 2AutonomousSearchNumAssignedPredicatesEncountered=8161
%%%mzn-stat-end
maxleg = 286;
succ = array1d(1..50,[4, 10, 6, 5, 24, 17, 27, 15, 16, 8, 12, 34, 32, 23, 14, 20, 18, 36, 35, 21, 25, 3, 44, 39, 26, 41, 1, 33, 31, 22, 37, 19, 29, 49, 43, 38, 2, 11, 28, 9, 46, 48, 7, 47, 40, 42, 45, 30, 50, 13]);
% time elapsed: 40.39 s
----------
%%%mzn-stat: initTime=0.034647837
%%%mzn-stat: objective=267
%%%mzn-stat: nodes=261582
%%%mzn-stat: restarts=0
%%%mzn-stat: peakDepth=316
%%%mzn-stat: solveTime=38.124867528
%%%mzn-stat: variables=662
%%%mzn-stat: propagators=455
%%%mzn-stat: failures=143568
%%%mzn-stat: propagations=5794296
%%%mzn-stat: nogoods=143568
%%%mzn-stat: numAtomicConstraintsPropagated=0
%%%mzn-stat: allDifferentNumber1TotalHallSetSize=230318
%%%mzn-stat: allDifferentNumber1NumberOfConflicts=17482
%%%mzn-stat: allDifferentNumber1MaxHallSetSize=49
%%%mzn-stat: allDifferentNumber1PropagationsTotal=715514
%%%mzn-stat: allDifferentNumber1PropagationsThatFoundConflict=17482
%%%mzn-stat: circuitNumber2PropagationsThatFoundConflict=91804
%%%mzn-stat: circuitNumber2TotalFixedEdgesAtConflict=4156263
%%%mzn-stat: circuitNumber2NumberOfConflicts=91804
%%%mzn-stat: circuitNumber2PropagationsThatPruned=133297
%%%mzn-stat: circuitNumber2PropagationsTotal=499461
%%%mzn-stat: AverageConflictSize=20.445064359745903
%%%mzn-stat: NumUnitNogoodsLearned=0
%%%mzn-stat: AverageLearnedNogoodLength=21.135921653850442
%%%mzn-stat: AverageBacktrackAmount=0
%%%mzn-stat: AverageLbd=14.145784575950072
%%%mzn-stat: 2AutonomousSearchNumBackupCalled=1348
%%%mzn-stat: 2AutonomousSearchNumPredicatesRemoved=0
%%%mzn-stat: 2AutonomousSearchNumCalls=1353
%%%mzn-stat: 2AutonomousSearchNumPredicatesAdded=4151
%%%mzn-stat: 2AutonomousSearchAverageSizeOfHeap=7.684405025868441
%%%mzn-stat: 2AutonomousSearchNumAssignedPredicatesEncountered=10397
%%%mzn-stat-end
maxleg = 267;
succ = array1d(1..50,[4, 10, 6, 5, 24, 22, 27, 15, 16, 8, 12, 34, 32, 23, 14, 20, 18, 30, 35, 21, 25, 38, 44, 39, 26, 41, 1, 33, 31, 36, 37, 19, 29, 49, 43, 3, 2, 11, 28, 9, 46, 48, 7, 47, 40, 42, 45, 17, 50, 13]);
% time elapsed: 40.40 s
----------
%%%mzn-stat: initTime=0.034647837
%%%mzn-stat: objective=259
%%%mzn-stat: nodes=261871
%%%mzn-stat: restarts=0
%%%mzn-stat: peakDepth=316
%%%mzn-stat: solveTime=38.129661231
%%%mzn-stat: variables=662
%%%mzn-stat: propagators=455
%%%mzn-stat: failures=143572
%%%mzn-stat: propagations=5795393
%%%mzn-stat: nogoods=143572
%%%mzn-stat: numAtomicConstraintsPropagated=0
%%%mzn-stat: allDifferentNumber1TotalHallSetSize=230325
%%%mzn-stat: allDifferentNumber1NumberOfConflicts=17484
%%%mzn-stat: allDifferentNumber1MaxHallSetSize=49
%%%mzn-stat: allDifferentNumber1PropagationsTotal=715592
%%%mzn-stat: allDifferentNumber1PropagationsThatFoundConflict=17484
%%%mzn-stat: circuitNumber2PropagationsThatFoundConflict=91806
%%%mzn-stat: circuitNumber2TotalFixedEdgesAtConflict=4156359
%%%mzn-stat: circuitNumber2NumberOfConflicts=91806
%%%mzn-stat: circuitNumber2PropagationsThatPruned=133306
%%%mzn-stat: circuitNumber2PropagationsTotal=499513
%%%mzn-stat: AverageConflictSize=20.445246984091607
%%%mzn-stat: NumUnitNogoodsLearned=0
%%%mzn-stat: AverageLearnedNogoodLength=21.13613378653219
%%%mzn-stat: AverageBacktrackAmount=0
%%%mzn-stat: AverageLbd=14.145989468698632
%%%mzn-stat: 2AutonomousSearchNumBackupCalled=1595
%%%mzn-stat: 2AutonomousSearchNumPredicatesRemoved=0
%%%mzn-stat: 2AutonomousSearchNumCalls=1601
%%%mzn-stat: 2AutonomousSearchNumPredicatesAdded=4393
%%%mzn-stat: 2AutonomousSearchAverageSizeOfHeap=7.890693316677077
%%%mzn-stat: 2AutonomousSearchNumAssignedPredicatesEncountered=12633
%%%mzn-stat-end
maxleg = 259;
succ = array1d(1..50,[4, 10, 6, 5, 24, 22, 27, 15, 16, 8, 12, 34, 32, 23, 14, 20, 18, 30, 35, 21, 25, 38, 44, 39, 26, 41, 1, 33, 31, 36, 37, 43, 29, 49, 7, 3, 2, 11, 28, 9, 46, 48, 19, 47, 40, 42, 45, 17, 50, 13]);
% time elapsed: 40.41 s
----------
=====ERROR=====
% time elapsed: 1491.54 s
